lp_solve/compute_ilp/result/insertsort.res
set_XLI: Successfully loaded './xli_CPLEX'

Value of objective function: 2.25951e+07

Actual values of the variables:
dSta_0                          1
d0_14                           1
d1_2.v0                         0
d1_2.v1                         1
d1_1.v0                         1
d1_1.v1                      1021
d2_9                            1
d3_4.v0                         1
d3_4.v1                      1022
d3_6.v0                         0
d3_6.v1                         0
d4_8.v0                         1
d4_8.v1                      1022
d5_6.v00                        0
d5_6.v01                        1
d5_6.v10                        0
d5_6.v11                     1022
d5_5.v00                        1
d5_5.v01                      509
d5_5.v10                     1022
d5_5.v11                   520198
d6_7.v0                         0
d6_7.v1                         1
d6_3.v0                         1
d6_3.v1                      1021
d8_5.v0                         1
d8_5.v1                      1022
d8_6.v0                         0
d8_6.v1                         0
d9_10                           1
d9_12                           0
d10_13                          1
d11_12.v0                       0
d11_12.v1                       1
d11_11.v0                       1
d11_11.v1                     509
d12_3                           1
d12_7                           0
d13_11                          1
d13_12                          0
d14_1                           1
d14_2                           0
b0                              1
b1                           1023
d1_2                            1
d1_1                         1022
b2                              1
b3                           1023
d3_4                         1023
d3_6                            0
d6_3                         1022
b4                           1023
d4_8                         1023
b5                         522753
d5_6                         1023
d5_5                       521730
d8_5                         1023
b6                           1023
d6_7                            1
d8_6                            0
b7                              1
b8                           1023
b9                              1
b10                             1
b11                           511
d11_12                          1
d11_11                        510
b12                             1
b13                             1
b14                             1
b1.v0                           1
b1.v1                        1022
b3.v0                           1
b3.v1                        1022
b4.v0                           1
b4.v1                        1022
b5.v00                          1
b5.v01                        510
b5.v10                       1022
b5.v11                     521220
b6.v0                           1
b6.v1                        1022
b8.v0                           1
b8.v1                        1022
b11.v0                          1
b11.v1                        510
d5_6.v0                         1
d5_6.v1                      1022
